nN = 4;
nR = 17;
nH = 1;

a = [[10, 14, 5, 18, 21, 21, 22, 19, 24, 5, 22, 5, 25, 20, 16, 12, 8], [22, 15, 23, 7, 19, 7, 15, 20, 20, 17, 22, 25, 9, 13, 14, 21, 17], [12, 11, 6, 9, 19, 20, 24, 16, 12, 10, 14, 21, 10, 12, 18, 23, 20], [5, 14, 18, 19, 18, 11, 11, 14, 11, 20, 12, 17, 9, 21, 5, 23, 22]];
c = [[[0, 0, 0, 0, 0, 0, 0, 0, 0, 0, 0, 0, 0, 0, 0, 0, 0], [32, 34, 35, 47, 36, 40, 47, 45, 47, 33, 44, 30, 47, 40, 35, 32, 36], [33, 45, 44, 36, 30, 37, 34, 47, 43, 39, 30, 40, 33, 31, 37, 41, 36], [46, 31, 45, 44, 35, 48, 50, 30, 47, 42, 50, 37, 31, 37, 36, 47, 50]], [[0, 0, 0, 0, 0, 0, 0, 0, 0, 0, 0, 0, 0, 0, 0, 0, 0], [0, 0, 0, 0, 0, 0, 0, 0, 0, 0, 0, 0, 0, 0, 0, 0, 0], [34, 43, 42, 41, 35, 49, 32, 42, 45, 41, 39, 43, 30, 34, 44, 36, 36], [31, 36, 42, 38, 37, 41, 50, 35, 43, 31, 41, 42, 39, 41, 40, 48, 37]], [[0, 0, 0, 0, 0, 0, 0, 0, 0, 0, 0, 0, 0, 0, 0, 0, 0], [0, 0, 0, 0, 0, 0, 0, 0, 0, 0, 0, 0, 0, 0, 0, 0, 0], [0, 0, 0, 0, 0, 0, 0, 0, 0, 0, 0, 0, 0, 0, 0, 0, 0], [43, 35, 30, 34, 50, 34, 38, 47, 38, 32, 48, 35, 35, 45, 39, 44, 46]], [[0, 0, 0, 0, 0, 0, 0, 0, 0, 0, 0, 0, 0, 0, 0, 0, 0], [0, 0, 0, 0, 0, 0, 0, 0, 0, 0, 0, 0, 0, 0, 0, 0, 0], [0, 0, 0, 0, 0, 0, 0, 0, 0, 0, 0, 0, 0, 0, 0, 0, 0], [0, 0, 0, 0, 0, 0, 0, 0, 0, 0, 0, 0, 0, 0, 0, 0, 0]]];
Q = [[45], [51], [50], [49]];

q = [[[20], [9], [20], [17], [8], [11], [20], [14], [8], [11], [13], [9], [17], [8], [6], [13], [18]], [[10], [24], [17], [13], [22], [19], [13], [22], [10], [24], [6], [12], [5], [8], [10], [17], [19]], [[13], [18], [20], [13], [24], [22], [7], [20], [6], [12], [14], [12], [8], [10], [25], [20], [5]], [[19], [8], [23], [17], [5], [7], [9], [9], [18], [17], [9], [23], [24], [15], [9], [11], [22]]];
p = [0.44, 0.71, 0.45, 0.05, 0.9, 0.67, 0.87, 0.94, 0.7, 0.7, 0.47, 0.89, 0.9, 0.08, 0.66, 0.02, 0.68];
